% Auto-generated by scripts/generate_dzn.py
% problem_type   = regex
% instance       = regex_93
% source_json    = instances_json/2_high_blowup/regex_93.json
% blowup         = 10.652173913043478
% representation = NFA

mode = 1;

var_count = 22;
n_constraints = 2;
Q = 12;
S = 2;
q0 = [1, 1];
F = [{12}, {11}];
weights = [1, 1, 6, 6, 8, 9, 6, 2, 5, 4, 1, 7, 1, 4, 7, 3, 6, 10, 4, 3, 8, 8];
d_dfa = array3d(1..2, 1..12, 1..2, [
  % k = 1
    0, 0,
    0, 0,
    0, 0,
    0, 0,
    0, 0,
    0, 0,
    0, 0,
    0, 0,
    0, 0,
    0, 0,
    0, 0,
    0, 0,

  % k = 2
    0, 0,
    0, 0,
    0, 0,
    0, 0,
    0, 0,
    0, 0,
    0, 0,
    0, 0,
    0, 0,
    0, 0,
    0, 0,
    0, 0
]);
d_nfa = array3d(1..2, 1..12, 1..2, [
  % k = 1
    {1}, {1, 2},
    {3}, {},
    {4}, {4},
    {5}, {5},
    {6}, {6},
    {7}, {7},
    {8}, {8},
    {9}, {9},
    {10}, {10},
    {11}, {11},
    {12}, {12},
    {}, {},

  % k = 2
    {2}, {1},
    {3}, {2},
    {4}, {3},
    {5}, {4},
    {6}, {5},
    {7}, {6},
    {8}, {7},
    {9}, {8},
    {10}, {9},
    {11}, {10},
    {}, {11},
    {}, {}
]);
